<number of tasks>
50

<cycle time>
1000

<order strength>
0.6


<task times>
1 595
2 642
3 567
4 438
5 599
6 481
7 462
8 367
9 495
10 670
11 461
12 473
13 431
14 386
15 428
16 492
17 570
18 758
19 511
20 643
21 448
22 479
23 568
24 528
25 434
26 548
27 521
28 333
29 430
30 569
31 410
32 474
33 544
34 677
35 305
36 553
37 523
38 417
39 483
40 640
41 468
42 503
43 223
44 411
45 613
46 544
47 749
48 302
49 256
50 472

<precedence relations>
1,4
2,7
3,5
3,6
3,8
3,9
4,10
5,11
6,12
7,13
8,13
9,13
10,14
11,15
12,16
13,14
13,15
13,16
13,17
14,18
14,19
14,20
14,21
15,20
15,21
16,20
16,21
17,20
17,21
18,22
19,23
20,24
20,25
20,28
21,25
22,28
23,26
24,27
25,29
25,30
25,31
26,32
27,34
28,34
28,39
29,33
29,35
30,35
30,36
31,35
32,37
33,38
33,39
33,40
33,41
34,45
35,40
35,41
36,39
36,41
37,42
38,43
39,44
39,49
40,46
41,45
41,46
41,48
42,48
43,49
44,47
46,50

<end>
